# dados do problema

set PROD := P1 P2;
set MAQ := Misturador Reator;

param demanda :=
P1 60
P2 40 ;

param custo :=
P1 40
P2 50 ;

param capacidade :=
Misturador 250
Reator     200 ;

param tempo :
                 P1    P2 :=
Misturador       2     3
Reator           2.5   3 ;